Using license file /home/benedond/gurobi.lic
Using gurobi.env file
Set parameter Threads to value 1
Academic license - for non-commercial use only
Changed value of parameter TimeLimit to 300.0
   Prev: inf  Min: 0.0  Max: inf  Default: inf
Gurobi Optimizer version 9.0.1 build v9.0.1rc0 (linux64)
Optimize a model with 5524 rows, 5273 columns and 25811 nonzeros
Model fingerprint: 0xd408e111
Variable types: 100 continuous, 5173 integer (5173 binary)
Coefficient statistics:
  Matrix range     [2e-01, 5e+02]
  Objective range  [3e-03, 2e-01]
  Bounds range     [1e+00, 1e+00]
  RHS range        [1e+00, 2e+03]
Found heuristic solution: objective 4.6250226
Presolve removed 123 rows and 106 columns
Presolve time: 0.09s
Presolved: 5401 rows, 5167 columns, 25390 nonzeros
Variable types: 99 continuous, 5068 integer (5068 binary)

Root relaxation: objective 1.896722e+00, 5484 iterations, 0.41 seconds

    Nodes    |    Current Node    |     Objective Bounds      |     Work
 Expl Unexpl |  Obj  Depth IntInf | Incumbent    BestBd   Gap | It/Node Time

     0     0    1.89672    0  325    4.62502    1.89672  59.0%     -    0s
H    0     0                       3.0580769    1.89672  38.0%     -    1s
     0     0    1.98371    0  302    3.05808    1.98371  35.1%     -    1s
     0     0    1.99889    0  313    3.05808    1.99889  34.6%     -    1s
     0     0    2.12041    0  312    3.05808    2.12041  30.7%     -    2s
     0     0    2.13257    0  275    3.05808    2.13257  30.3%     -    2s
     0     0    2.19205    0  311    3.05808    2.19205  28.3%     -    2s
     0     0    2.21104    0  291    3.05808    2.21104  27.7%     -    3s
     0     0    2.21980    0  243    3.05808    2.21980  27.4%     -    3s
     0     0    2.22997    0  286    3.05808    2.22997  27.1%     -    3s
     0     0    2.23132    0  268    3.05808    2.23132  27.0%     -    3s
     0     0    2.23133    0  253    3.05808    2.23133  27.0%     -    3s
     0     0    2.25541    0  321    3.05808    2.25541  26.2%     -    3s
     0     0    2.27280    0  290    3.05808    2.27280  25.7%     -    4s
     0     0    2.27935    0  301    3.05808    2.27935  25.5%     -    4s
     0     0    2.28078    0  305    3.05808    2.28078  25.4%     -    4s
     0     0    2.28145    0  305    3.05808    2.28145  25.4%     -    4s
     0     0    2.28195    0  302    3.05808    2.28195  25.4%     -    4s
     0     0    2.28210    0  306    3.05808    2.28210  25.4%     -    4s
     0     0    2.29108    0  345    3.05808    2.29108  25.1%     -    4s
     0     0    2.29388    0  338    3.05808    2.29388  25.0%     -    4s
     0     0    2.29435    0  346    3.05808    2.29435  25.0%     -    5s
     0     0    2.29466    0  337    3.05808    2.29466  25.0%     -    5s
     0     0    2.29472    0  322    3.05808    2.29472  25.0%     -    5s
     0     0    2.30742    0  402    3.05808    2.30742  24.5%     -    5s
     0     0    2.31005    0  338    3.05808    2.31005  24.5%     -    5s
     0     0    2.31015    0  349    3.05808    2.31015  24.5%     -    5s
     0     0    2.31656    0  314    3.05808    2.31656  24.2%     -    5s
     0     0    2.31835    0  277    3.05808    2.31835  24.2%     -    6s
     0     0    2.31841    0  305    3.05808    2.31841  24.2%     -    6s
     0     0    2.32298    0  340    3.05808    2.32298  24.0%     -    6s
     0     0    2.32349    0  297    3.05808    2.32349  24.0%     -    6s
     0     0    2.32387    0  316    3.05808    2.32387  24.0%     -    6s
     0     0    2.32396    0  321    3.05808    2.32396  24.0%     -    6s
     0     0    2.32974    0  281    3.05808    2.32974  23.8%     -    6s
     0     0    2.33084    0  323    3.05808    2.33084  23.8%     -    6s
     0     0    2.33120    0  305    3.05808    2.33120  23.8%     -    7s
     0     0    2.33128    0  311    3.05808    2.33128  23.8%     -    7s
     0     0    2.33546    0  286    3.05808    2.33546  23.6%     -    7s
     0     0    2.33776    0  337    3.05808    2.33776  23.6%     -    7s
     0     0    2.33895    0  358    3.05808    2.33895  23.5%     -    7s
     0     0    2.33934    0  336    3.05808    2.33934  23.5%     -    7s
     0     0    2.33943    0  363    3.05808    2.33943  23.5%     -    7s
     0     0    2.34288    0  339    3.05808    2.34288  23.4%     -    7s
     0     0    2.34436    0  373    3.05808    2.34436  23.3%     -    7s
     0     0    2.34496    0  359    3.05808    2.34496  23.3%     -    8s
     0     0    2.34564    0  374    3.05808    2.34564  23.3%     -    8s
     0     0    2.34583    0  392    3.05808    2.34583  23.3%     -    8s
     0     0    2.34825    0  350    3.05808    2.34825  23.2%     -    8s
     0     0    2.34902    0  395    3.05808    2.34902  23.2%     -    8s
     0     0    2.34943    0  329    3.05808    2.34943  23.2%     -    8s
     0     0    2.34957    0  348    3.05808    2.34957  23.2%     -    8s
     0     0    2.35226    0  338    3.05808    2.35226  23.1%     -    8s
     0     0    2.35292    0  317    3.05808    2.35292  23.1%     -    9s
     0     0    2.35309    0  318    3.05808    2.35309  23.1%     -    9s
     0     0    2.35564    0  389    3.05808    2.35564  23.0%     -    9s
     0     0    2.35564    0  386    3.05808    2.35564  23.0%     -   12s
H    0     0                       3.0580769    2.35564  23.0%     -   21s
     0     2    2.35564    0  383    3.05808    2.35564  23.0%     -   21s
     6     8    2.43584    3  260    3.05808    2.36122  22.8%  1575   25s
    27    29    2.47095   22  246    3.05808    2.36252  22.7%   659   30s
   109   111    2.46881   99  289    3.05808    2.36252  22.7%   364   35s
   163   165    2.69652  137  168    3.05808    2.36252  22.7%   418   40s
H  187   187                       2.9647149    2.36252  20.3%   422   43s
   230   224    2.89326  186  154    2.96471    2.36252  20.3%   379   45s
   300   286    2.54106   56  238    2.96471    2.36363  20.3%   363   50s
   467   435    2.54897    8  267    2.96471    2.36456  20.2%   303   55s
H  510   477                       2.9508371    2.36456  19.9%   300   61s
   514   480    2.45905   93  273    2.95084    2.36456  19.9%   297   65s
   524   487    2.38583   29  419    2.95084    2.37335  19.6%   292   70s
   533   493    2.43714   62  391    2.95084    2.39631  18.8%   287   75s
H  541   472                       2.9372217    2.40415  18.1%   282   91s
   548   477    2.88204  161  413    2.93722    2.41069  17.9%   279   95s
   558   483    2.59825   17  423    2.93722    2.41853  17.7%   274  100s
   568   490    2.87006  171  430    2.93722    2.42489  17.4%   269  105s
   577   496    2.42851   42  557    2.93722    2.42851  17.3%   265  110s
   586   502    2.44149   73  508    2.93722    2.43123  17.2%   261  115s
   595   508    2.87006  171  553    2.93722    2.43455  17.1%   257  120s
   607   517    2.80065  117  254    2.93722    2.43616  17.1%   403  126s
   614   522    2.45905   93  451    2.93722    2.43616  17.1%   398  130s
   622   527    2.59326  114  492    2.93722    2.43660  17.0%   393  135s
H  625   502                       2.9372211    2.43753  17.0%   391  147s
   632   507    2.58597  129  515    2.93722    2.43877  17.0%   387  150s
   639   512    2.48438  106  646    2.93722    2.44105  16.9%   383  155s
   649   518    2.49390  104  650    2.93722    2.44325  16.8%   377  160s
   652   520    2.53644   48  590    2.93722    2.44379  16.8%   375  173s
   654   522    2.57177  122  585    2.93722    2.44379  16.8%   374  178s
   655   524    2.44485   21  505    2.93722    2.44442  16.8%   439  187s
   656   525    2.45205   21  519    2.93722    2.44486  16.8%   440  196s
   657   526    2.44490   22  516    2.93722    2.44490  16.8%   439  200s
   662   529    2.56276   24  298    2.93722    2.44499  16.8%   453  207s
   665   531    2.45031   26  441    2.93722    2.45015  16.6%   457  210s
   672   536    2.67477   29  314    2.93722    2.45199  16.5%   471  215s
   680   541    2.47589   33  402    2.93722    2.45205  16.5%   487  220s
   681   542    2.45519   34  366    2.93722    2.45205  16.5%   486  230s
H  688   517                       2.9152081    2.45205  15.9%   495  241s
   696   525    2.55018   41  280    2.91521    2.45205  15.9%   509  245s
   706   531    2.68819   46  220    2.91521    2.45205  15.9%   524  250s
   716   538    2.65481   51  300    2.91521    2.45205  15.9%   540  255s
   726   543     cutoff   56         2.91521    2.45205  15.9%   559  261s
   734   548    2.55201   60  311    2.91521    2.45205  15.9%   568  265s
   748   557    2.83112   67  242    2.91521    2.45205  15.9%   583  270s
   765   569    2.49112   76  250    2.91521    2.45205  15.9%   593  275s
   782   580    2.59726   84  222    2.91521    2.45205  15.9%   606  280s
   806   596    2.61298   96  202    2.91521    2.45205  15.9%   617  285s
   832   613    2.71867  109  199    2.91521    2.45205  15.9%   627  290s
   866   634    2.64671  126  197    2.91521    2.45205  15.9%   635  295s

Cutting planes:
  Gomory: 2
  Cover: 20
  Implied bound: 4
  Clique: 16
  MIR: 201
  StrongCG: 5
  Flow cover: 553
  GUB cover: 4
  Zero half: 1
  RLT: 18
  Relax-and-lift: 226

Explored 884 nodes (595385 simplex iterations) in 300.00 seconds
Thread count was 1 (of 4 available processors)

Solution count 6: 2.91521 2.93722 2.95084 ... 4.62502

Time limit reached
Best objective 2.915208109930e+00, best bound 2.452051003786e+00, gap 15.8876%
